(declare-fun v10 () (_ BitVec 1))
(declare-fun bvlambda_19_ () (_ BitVec 1))
(declare-fun bvlambda_20_ () (_ BitVec 2))
(declare-fun a75 () (Array (_ BitVec 1) (_ BitVec 6)))
(assert
(let (($e4 (_ bv3032 13)))
(let (($e7 (_ bv0 11)))
(let (($e247 (concat bvlambda_20_ false       )))
(let (($e248 (concat $e247 v10         )))
(let (($e249 (concat $e248 bvlambda_20_)))
(let (($e253                      (bvnot v10  ) ))
(let (($e254 (store a75   $e253 $e249)))
(let (($e272 (concat $e7 bvlambda_19_)))
(let (($e273 (concat $e272 v10         )))
(let (($e274      (bvult $e273        $e4 )         ))
(let (($e276 (select $e254 (bvnot $e274))))
(let (($e277      (bvult $e276 $e249)     ))
             (bvand v10 $e277)
                                                                                                                                                                                                                                                                                                                                                                                                                                                                                                                                                                                                                                                                                                                                                                                                                                                                                                                                                                                                                                                                             )) )))                 ))   )))                                                                                                                                                                                                    )  )   )
